(set-logic HORN)
(set-info :source |
    Benchmark: C_VC
    Output by Princess (http://www.philipp.ruemmer.org/princess.shtml)
|)
(set-info :status sat)
;===============================================================================
; Encoding of Heap sorts and operations
;-------------------------------------------------------------------------------
(define-sort Addr() Int)
(declare-datatypes ((AddrRange 0))
                   (((AddrRange (AddrRangeStart Addr) (AddrRangeSize Int)))))

(declare-datatypes ((HeapObject 0))
                   (((O_Int (getInt Int)) (O_UInt (getUInt Int)) (O_Addr (getAddr Addr)) (defObj))))
(declare-datatypes ((BatchAllocResHeap 0) (AllocResHeap 0) (Heap 0))
                   (((BatchAllocResHeap   (newBatchHeap Heap) (newAddrRange AddrRange)))
                   ((AllocResHeap   (newHeap Heap) (newAddr Addr)))
                    ((HeapCtor (HeapSize Int)
                               (HeapContents (Array Addr HeapObject))))))
(define-fun nullAddr  () Addr 0)
(define-fun validHeap     ((h Heap) (p Addr)) Bool
  (and (>= (HeapSize h) p) (> p 0)))
(define-fun emptyHeap () Heap (
  HeapCtor 0 (( as const (Array Addr HeapObject)) defObj)))
(define-fun readHeap ((h Heap) (p Addr)) HeapObject
  (ite (validHeap h p)
       (select (HeapContents h) p)
       defObj))
(define-fun writeHeap ((h Heap) (p Addr) (o HeapObject)) Heap
  (ite (validHeap h p)
       (HeapCtor (HeapSize h) (store (HeapContents h) p o))
       h))
(define-fun allocHeap   ((h Heap) (o HeapObject)) AllocResHeap
  (AllocResHeap (HeapCtor (+ 1 (HeapSize h))
                    (store (HeapContents h) (+ 1 (HeapSize h)) o))
          (+ 1 (HeapSize h))))
(define-fun Heap-eq     ((h1 Heap) (h2 Heap)) Bool
  (forall ((p Addr))
          (and (= (validHeap h1 p) (validHeap h2 p))
               (= (readHeap h1 p) (readHeap h2 p)))))
(define-fun nthAddrRange((ar AddrRange) (n Int)) Addr
  (ite (and (>= n 0) (< n (AddrRangeSize ar)))
       (+ (AddrRangeStart ar) n)
       nullAddr))
(define-fun withinHeap ((ar AddrRange ) (p Addr)) Bool
  (and (>= p (AddrRangeStart ar)) (< p (+ (AddrRangeStart ar) (AddrRangeSize ar)))))

(declare-fun batchAllocHeap     (Heap Heap HeapObject Int Int) Bool)
(declare-fun batchAllocPostHeap (Heap Heap HeapObject Int) Bool)

(assert (forall ((h1 Heap) (h2 Heap) (o HeapObject) (n1 Int) (n2 Int))
                (=> (and (> n2 0) (batchAllocHeap h1 h2 o n1 n2))
                   (batchAllocHeap h1 (newHeap (allocHeap h2 o)) o n1 (- n2 1)))))
(assert (forall ((h1 Heap) (h2 Heap) (o HeapObject) (n1 Int) (n2 Int))
                (=> (and (<= n2 0) (batchAllocHeap h1 h2 o n1 n2))
                   (batchAllocPostHeap h1 h2 o n1))))

(declare-fun batchWriteHeap     (Heap Heap Addr Addr HeapObject Int Int) Bool)
(declare-fun batchWritePostHeap (Heap Heap Addr HeapObject Int) Bool)

(assert (forall ((h1 Heap) (h2 Heap) (a1 Addr) (a2 Addr) (o HeapObject) (n1 Int) (n2 Int))
                (=> (and (> n2 0) (batchWriteHeap h1 h2 a1 a2 o n1 n2))
                   (batchWriteHeap h1 (writeHeap h2 a2 o) a1 (+ a2 1) o n1 (- n2 1)))))
(assert (forall ((h1 Heap) (h2 Heap) (a1 Addr) (a2 Addr) (o HeapObject) (n1 Int) (n2 Int))
                (=> (and (<= n2 0) (batchWriteHeap h1 h2 a1 a2 o n1 n2))
                   (batchWritePostHeap h1 h2 a1 o n1))))

;===============================================================================
(declare-fun inv_main21 (Heap AddrRange AddrRange Int Int Int AddrRange) Bool)
(declare-fun inv_main22 (Heap AddrRange AddrRange Int Int Int AddrRange) Bool)
(declare-fun inv_main23 (Heap AddrRange AddrRange Int Int Int AddrRange) Bool)
(declare-fun inv_main24 (Heap AddrRange AddrRange Int Int Int AddrRange) Bool)
(declare-fun inv_main26 (Heap AddrRange AddrRange Int Int Int AddrRange Int) Bool)
(declare-fun inv_main3 (Heap AddrRange) Bool)
(declare-fun inv_main33 (Heap AddrRange AddrRange Int Int Int AddrRange) Bool)
(declare-fun inv_main34 (Heap AddrRange AddrRange Int Int Int AddrRange) Bool)
(declare-fun inv_main36 (Heap AddrRange AddrRange Int Int Int AddrRange Int) Bool)
(declare-fun inv_main39 (Heap AddrRange AddrRange Int Int Int AddrRange Int) Bool)
(declare-fun inv_main4 (Heap AddrRange) Bool)
(declare-fun inv_main51 (Heap AddrRange AddrRange Int Int Int AddrRange) Bool)
(declare-fun inv_main56 (Heap AddrRange AddrRange Int Int Int AddrRange) Bool)
(declare-fun inv_main9 (Heap AddrRange Int) Bool)
(assert (forall ((var0 Int) (var1 Heap)) (or (not (= var1 emptyHeap)) (inv_main3 (newBatchHeap (batchAllocHeap emptyHeap (O_Int var0) 9)) (AddrRange (ite (<= 0 8) (+ (HeapSize emptyHeap) 1) (HeapSize emptyHeap)) 9)))))
(assert true)
(assert (forall ((var0 AddrRange) (var1 Int) (var2 Heap) (var3 Int) (var4 Int) (var5 AddrRange) (var6 Heap)) (or (not (and (and (and (and (and (and (inv_main9 var6 var5 var4) (= var3 var4)) (= var0 var5)) (= var2 (writeHeap var6 (nthAddrRange var5 var4) (O_Int var1)))) (is-O_Int (readHeap var6 (nthAddrRange var5 var4)))) (is-O_Int (readHeap var6 (nthAddrRange var5 var4)))) (not (<= 0 (+ (+ (* (- 1) (+ var3 1)) 8) (* (- 1) 1)))))) (inv_main4 var2 var0))))
(assert (forall ((var0 AddrRange) (var1 Int) (var2 Int) (var3 Int) (var4 AddrRange) (var5 AddrRange) (var6 Heap) (var7 Int) (var8 AddrRange) (var9 Int) (var10 Int) (var11 Int) (var12 AddrRange) (var13 AddrRange) (var14 Heap)) (or (not (and (and (and (and (and (and (and (and (and (and (inv_main21 var14 var13 var12 var11 var10 var9 var8) (= var7 (getInt (readHeap var14 (nthAddrRange var12 var10))))) (= var0 var8)) (= var1 var9)) (= var2 var10)) (= var3 var11)) (= var4 var12)) (= var5 var13)) (= var6 var14)) (is-O_Int (readHeap var14 (nthAddrRange var12 var10)))) (not (= var7 0)))) (inv_main22 var6 var5 var4 var3 (+ var2 1) var1 var0))))
(assert (forall ((var0 Heap) (var1 AddrRange) (var2 Int) (var3 Int) (var4 Int) (var5 AddrRange) (var6 AddrRange) (var7 Int) (var8 Heap) (var9 AddrRange) (var10 AddrRange) (var11 Heap)) (or (not (and (batchAllocHeapPostHeap emptyHeap var8 (O_Int var7) 2) (and (and (and (and (and (and (and (and (and (and (and (and (inv_main4 var11 var10) (= var5 var10)) (= var0 (writeHeap var11 (nthAddrRange var10 8) (O_Int 0)))) (is-O_Int (readHeap var11 (nthAddrRange var10 8)))) (is-O_Int (readHeap var11 (nthAddrRange var10 8)))) (= var1 (AddrRange (ite (<= 0 1) (+ (HeapSize emptyHeap) 1) (HeapSize emptyHeap)) 2))) (= var2 (* (- 1) 1))) (= var3 (* (- 1) 1))) (= var4 0)) (= var9 var5)) (= var6 var5)) true) (not (= var9 0))))) (inv_main22 var8 var6 var9 var4 (+ var3 1) var2 var1))))
(assert (forall ((var0 Heap) (var1 AddrRange) (var2 Int) (var3 Int) (var4 Int) (var5 AddrRange) (var6 AddrRange) (var7 Int) (var8 Heap) (var9 AddrRange) (var10 AddrRange) (var11 Heap)) (or (not (and (and (and (and (and (and (and (and (and (and (and (and (inv_main4 var11 var10) (= var5 var10)) (= var0 (writeHeap var11 (nthAddrRange var10 8) (O_Int 0)))) (is-O_Int (readHeap var11 (nthAddrRange var10 8)))) (is-O_Int (readHeap var11 (nthAddrRange var10 8)))) (= var1 (AddrRange (ite (<= 0 1) (+ (HeapSize emptyHeap) 1) (HeapSize emptyHeap)) 2))) (= var2 (* (- 1) 1))) (= var3 (* (- 1) 1))) (= var4 0)) (= var9 var5)) (= var6 var5)) true) (not (= var9 0)))) (batchAllocHeap emptyHeap emptyHeap (O_Int var7) 2 2))))
(assert (forall ((var0 AddrRange) (var1 Int) (var2 Int) (var3 Int) (var4 AddrRange) (var5 AddrRange) (var6 Heap)) (or (not (and (and (inv_main33 var6 var5 var4 var3 var2 var1 var0) (is-O_Int (readHeap var6 (nthAddrRange var4 var1)))) (<= 0 (+ var1 (* (- 1) 1))))) (inv_main36 var6 var5 var4 var3 var2 var1 var0 (getInt (readHeap var6 (nthAddrRange var4 var1)))))))
(assert (forall ((var0 AddrRange) (var1 Int) (var2 Int) (var3 Int) (var4 AddrRange) (var5 AddrRange) (var6 Heap) (var7 AddrRange) (var8 Int) (var9 Int) (var10 Int) (var11 AddrRange) (var12 AddrRange) (var13 Heap)) (or (not (and (and (and (and (and (and (and (and (and (inv_main56 var13 var12 var11 var10 var9 var8 var7) (= var0 var7)) (= var1 var8)) (= var2 var9)) (= var3 var10)) (= var4 var11)) (= var5 var12)) (= var6 (writeHeap var13 (nthAddrRange var7 (+ (+ (* (- 1) var10) var8) 1)) (O_Int 0)))) (is-O_Int (readHeap var13 (nthAddrRange var7 (+ (+ (* (- 1) var10) var8) 1))))) (is-O_Int (readHeap var13 (nthAddrRange var7 (+ (+ (* (- 1) var10) var8) 1)))))) (inv_main21 var6 var5 var4 (+ var2 1) var2 var1 var0))))
(assert (forall ((var0 AddrRange) (var1 Int) (var2 Int) (var3 Int) (var4 AddrRange) (var5 AddrRange) (var6 Heap)) (or (not (inv_main51 var6 var5 var4 var3 var2 var1 var0)) (inv_main56 var6 var5 var4 var3 var2 var1 var0))))
(assert (forall ((var0 AddrRange) (var1 Int) (var2 Int) (var3 Int) (var4 AddrRange) (var5 AddrRange) (var6 Heap) (var7 Int) (var8 AddrRange) (var9 Int) (var10 Int) (var11 Int) (var12 AddrRange) (var13 AddrRange) (var14 Heap) (var15 Int) (var16 Int) (var17 AddrRange) (var18 Int) (var19 Int) (var20 Int) (var21 AddrRange) (var22 AddrRange) (var23 Heap)) (or (not (and (and (and (and (and (and (and (and (and (and (and (and (and (and (and (and (and (and (and (inv_main26 var23 var22 var21 var20 var19 var18 var17 var16) (or (and (= var7 9) (= var15 1)) (and (not (= var7 9)) (= var15 0)))) (= var0 var8)) (= var1 var9)) (= var2 var10)) (= var3 var11)) (= var4 var12)) (= var5 var13)) (= var6 var14)) (= var7 (getInt (readHeap var23 (nthAddrRange var21 var20))))) (= var8 var17)) (= var9 var18)) (= var10 var19)) (= var11 var20)) (= var12 var21)) (= var13 var22)) (= var14 var23)) (is-O_Int (readHeap var23 (nthAddrRange var21 var20)))) (not (= var16 32))) (= var15 0))) (inv_main24 var6 var5 var4 var3 var2 var1 var0))))
(assert (forall ((var0 AddrRange) (var1 Int) (var2 Int) (var3 Int) (var4 AddrRange) (var5 AddrRange) (var6 Heap)) (or (not (and (inv_main23 var6 var5 var4 var3 var2 var1 var0) (is-O_Int (readHeap var6 (nthAddrRange var4 var3))))) (inv_main26 var6 var5 var4 var3 var2 var1 var0 (getInt (readHeap var6 (nthAddrRange var4 var3)))))))
(assert (forall ((var0 Int) (var1 AddrRange) (var2 Int) (var3 Int) (var4 Int) (var5 AddrRange) (var6 AddrRange) (var7 Heap)) (or (not (and (inv_main39 var7 var6 var5 var4 var3 var2 var1 var0) (= var0 0))) (inv_main34 var7 var6 var5 var4 var3 var2 var1))))
(assert (forall ((var0 Int) (var1 AddrRange) (var2 Int) (var3 Int) (var4 Int) (var5 AddrRange) (var6 AddrRange) (var7 Heap)) (or (not (and (inv_main39 var7 var6 var5 var4 var3 var2 var1 var0) (not (= var0 0)))) (inv_main33 var7 var6 var5 var4 var3 (+ var2 (* (- 1) 1)) var1))))
(assert (forall ((var0 AddrRange) (var1 Int) (var2 Int) (var3 Int) (var4 AddrRange) (var5 AddrRange) (var6 Heap) (var7 Int) (var8 AddrRange) (var9 Int) (var10 Int) (var11 Int) (var12 AddrRange) (var13 AddrRange) (var14 Heap)) (or (not (and (and (and (and (and (and (and (and (and (and (inv_main24 var14 var13 var12 var11 var10 var9 var8) (= var7 (getInt (readHeap var14 (nthAddrRange var12 var11))))) (= var0 var8)) (= var1 var9)) (= var2 var10)) (= var3 var11)) (= var4 var12)) (= var5 var13)) (= var6 var14)) (is-O_Int (readHeap var14 (nthAddrRange var12 var11)))) (= var7 34))) (inv_main33 var6 var5 var4 (+ var3 1) var2 (+ var2 (* (- 1) 1)) var0))))
(assert (forall ((var0 AddrRange) (var1 Int) (var2 Int) (var3 Int) (var4 AddrRange) (var5 AddrRange) (var6 Heap) (var7 Int) (var8 AddrRange) (var9 Int) (var10 Int) (var11 Int) (var12 AddrRange) (var13 AddrRange) (var14 Heap)) (or (not (and (and (and (and (and (and (and (and (and (and (inv_main24 var14 var13 var12 var11 var10 var9 var8) (= var7 (getInt (readHeap var14 (nthAddrRange var12 var11))))) (= var0 var8)) (= var1 var9)) (= var2 var10)) (= var3 var11)) (= var4 var12)) (= var5 var13)) (= var6 var14)) (is-O_Int (readHeap var14 (nthAddrRange var12 var11)))) (not (= var7 34)))) (inv_main33 var6 var5 var4 var3 var2 (+ var2 (* (- 1) 1)) var0))))
(assert (forall ((var0 AddrRange) (var1 Int) (var2 Int) (var3 Int) (var4 AddrRange) (var5 AddrRange) (var6 Heap)) (or (not (and (inv_main33 var6 var5 var4 var3 var2 var1 var0) (not (<= 0 (+ var1 (* (- 1) 1)))))) (inv_main39 var6 var5 var4 var3 var2 var1 var0 0))))
(assert (forall ((var0 Int) (var1 AddrRange) (var2 Int) (var3 Int) (var4 Int) (var5 AddrRange) (var6 AddrRange) (var7 Heap)) (or (not (and (inv_main36 var7 var6 var5 var4 var3 var2 var1 var0) (= var0 32))) (inv_main39 var7 var6 var5 var4 var3 var2 var1 1))))
(assert (forall ((var0 Int) (var1 AddrRange) (var2 Int) (var3 Int) (var4 Int) (var5 AddrRange) (var6 AddrRange) (var7 Heap) (var8 Int) (var9 AddrRange) (var10 Int) (var11 Int) (var12 Int) (var13 AddrRange) (var14 AddrRange) (var15 Heap) (var16 Int) (var17 AddrRange) (var18 Int) (var19 Int) (var20 Int) (var21 AddrRange) (var22 AddrRange) (var23 Heap)) (or (not (and (and (and (and (and (and (and (and (and (and (and (and (and (and (and (and (and (and (inv_main36 var23 var22 var21 var20 var19 var18 var17 var16) (or (and (= var8 9) (= var0 1)) (and (not (= var8 9)) (= var0 0)))) (= var1 var9)) (= var2 var10)) (= var3 var11)) (= var4 var12)) (= var5 var13)) (= var6 var14)) (= var7 var15)) (= var8 (getInt (readHeap var23 (nthAddrRange var21 var18))))) (= var9 var17)) (= var10 var18)) (= var11 var19)) (= var12 var20)) (= var13 var21)) (= var14 var22)) (= var15 var23)) (is-O_Int (readHeap var23 (nthAddrRange var21 var18)))) (not (= var16 32)))) (inv_main39 var7 var6 var5 var4 var3 var2 var1 var0))))
(assert (forall ((var0 Int) (var1 AddrRange) (var2 Int) (var3 Int) (var4 Int) (var5 AddrRange) (var6 AddrRange) (var7 Heap) (var8 Int) (var9 Int) (var10 AddrRange) (var11 AddrRange) (var12 AddrRange) (var13 AddrRange) (var14 Int) (var15 Int) (var16 Int) (var17 Int) (var18 Int) (var19 Int) (var20 AddrRange) (var21 AddrRange) (var22 AddrRange) (var23 AddrRange) (var24 Heap) (var25 Heap) (var26 AddrRange) (var27 Int) (var28 Int) (var29 Int) (var30 AddrRange) (var31 AddrRange) (var32 Heap)) (or (not (and (and (and (and (and (and (and (and (and (and (and (and (and (and (and (and (and (and (and (and (and (and (and (and (and (and (and (and (and (and (and (inv_main34 var32 var31 var30 var29 var28 var27 var26) (or (and (= var0 34) (= var8 1)) (and (not (= var0 34)) (= var8 0)))) (= var12 var1)) (= var14 var2)) (= var16 var3)) (= var18 var4)) (= var20 var5)) (= var22 var6)) (= var24 var7)) (= var0 (getInt (readHeap var32 (nthAddrRange var30 var27))))) (= var1 var26)) (= var2 var27)) (= var3 var28)) (= var4 var29)) (= var5 var30)) (= var6 var31)) (= var7 var32)) (is-O_Int (readHeap var32 (nthAddrRange var30 var27)))) (<= 0 (+ var27 (* (- 1) 1)))) (not (= var8 0))) (<= 0 (+ (+ (* (- 1) 1) var14) (* (- 1) var18)))) (not (<= 0 (+ (+ (+ (+ 1 (* (- 1) var18)) (* (- 1) 1)) var14) (* (- 1) 2))))) (= var9 (+ (+ (+ (* (- 1) var18) (* (- 1) 1)) var14) 1))) (= var10 (AddrRange (nthAddrRange var20 var18) (+ (AddrRangeSize var20) (* (- 1) var18))))) (= var11 var12)) (= var13 var12)) (= var15 (+ var14 (* (- 1) 1)))) (= var17 var16)) (= var19 var18)) (= var21 var20)) (= var23 var22)) (= var25 var24))) (inv_main51 var25 var23 var21 var19 var17 var15 var13))))
(assert (forall ((var0 Int) (var1 AddrRange) (var2 AddrRange) (var3 AddrRange) (var4 Int) (var5 Int) (var6 Int) (var7 AddrRange) (var8 AddrRange) (var9 Heap) (var10 AddrRange) (var11 Int) (var12 Int) (var13 Int) (var14 AddrRange) (var15 AddrRange) (var16 Heap)) (or (not (and (and (and (and (and (and (and (and (and (and (and (and (and (inv_main34 var16 var15 var14 var13 var12 var11 var10) (not (<= 0 (+ var11 (* (- 1) 1))))) (<= 0 (+ var11 (* (- 1) var13)))) (not (<= 0 (+ (+ (+ 1 (* (- 1) var13)) var11) (* (- 1) 2))))) (= var0 (+ (+ (* (- 1) var13) var11) 1))) (= var1 (AddrRange (nthAddrRange var14 var13) (+ (AddrRangeSize var14) (* (- 1) var13))))) (= var2 var10)) (= var3 var10)) (= var4 var11)) (= var5 var12)) (= var6 var13)) (= var7 var14)) (= var8 var15)) (= var9 var16))) (inv_main51 var9 var8 var7 var6 var5 var4 var3))))
(assert (forall ((var0 Int) (var1 AddrRange) (var2 Int) (var3 Int) (var4 Int) (var5 AddrRange) (var6 AddrRange) (var7 Heap) (var8 Int) (var9 Int) (var10 AddrRange) (var11 AddrRange) (var12 AddrRange) (var13 AddrRange) (var14 Int) (var15 Int) (var16 Int) (var17 Int) (var18 Int) (var19 Int) (var20 AddrRange) (var21 AddrRange) (var22 AddrRange) (var23 AddrRange) (var24 Heap) (var25 Heap) (var26 AddrRange) (var27 Int) (var28 Int) (var29 Int) (var30 AddrRange) (var31 AddrRange) (var32 Heap)) (or (not (and (and (and (and (and (and (and (and (and (and (and (and (and (and (and (and (and (and (and (and (and (and (and (and (and (and (and (and (and (and (and (inv_main34 var32 var31 var30 var29 var28 var27 var26) (or (and (= var0 34) (= var8 1)) (and (not (= var0 34)) (= var8 0)))) (= var12 var1)) (= var14 var2)) (= var16 var3)) (= var18 var4)) (= var20 var5)) (= var22 var6)) (= var24 var7)) (= var0 (getInt (readHeap var32 (nthAddrRange var30 var27))))) (= var1 var26)) (= var2 var27)) (= var3 var28)) (= var4 var29)) (= var5 var30)) (= var6 var31)) (= var7 var32)) (is-O_Int (readHeap var32 (nthAddrRange var30 var27)))) (<= 0 (+ var27 (* (- 1) 1)))) (= var8 0)) (<= 0 (+ var14 (* (- 1) var18)))) (not (<= 0 (+ (+ (+ 1 (* (- 1) var18)) var14) (* (- 1) 2))))) (= var9 (+ (+ (* (- 1) var18) var14) 1))) (= var10 (AddrRange (nthAddrRange var20 var18) (+ (AddrRangeSize var20) (* (- 1) var18))))) (= var11 var12)) (= var13 var12)) (= var15 var14)) (= var17 var16)) (= var19 var18)) (= var21 var20)) (= var23 var22)) (= var25 var24))) (inv_main51 var25 var23 var21 var19 var17 var15 var13))))
(assert (forall ((var0 AddrRange) (var1 Heap)) (or (not (inv_main3 var1 var0)) (inv_main9 var1 var0 0))))
(assert (forall ((var0 AddrRange) (var1 Int) (var2 Heap) (var3 Int) (var4 Int) (var5 AddrRange) (var6 Heap)) (or (not (and (and (and (and (and (and (inv_main9 var6 var5 var4) (= var3 var4)) (= var0 var5)) (= var2 (writeHeap var6 (nthAddrRange var5 var4) (O_Int var1)))) (is-O_Int (readHeap var6 (nthAddrRange var5 var4)))) (is-O_Int (readHeap var6 (nthAddrRange var5 var4)))) (<= 0 (+ (+ (* (- 1) (+ var3 1)) 8) (* (- 1) 1))))) (inv_main9 var2 var0 (+ var3 1)))))
(assert (forall ((var0 AddrRange) (var1 Int) (var2 Int) (var3 Int) (var4 AddrRange) (var5 AddrRange) (var6 Heap)) (or (not (and (and (inv_main22 var6 var5 var4 var3 var2 var1 var0) (= (getInt (readHeap var6 (nthAddrRange var4 var2))) 0)) (is-O_Int (readHeap var6 (nthAddrRange var4 var2))))) (inv_main23 var6 var5 var4 var3 var2 var1 var0))))
(assert (forall ((var0 Int) (var1 AddrRange) (var2 Int) (var3 Int) (var4 Int) (var5 AddrRange) (var6 AddrRange) (var7 Heap)) (or (not (and (inv_main26 var7 var6 var5 var4 var3 var2 var1 var0) (= var0 32))) (inv_main23 var7 var6 var5 (+ var4 1) var3 var2 var1))))
(assert (forall ((var0 AddrRange) (var1 Int) (var2 Int) (var3 Int) (var4 AddrRange) (var5 AddrRange) (var6 Heap) (var7 Int) (var8 AddrRange) (var9 Int) (var10 Int) (var11 Int) (var12 AddrRange) (var13 AddrRange) (var14 Heap) (var15 Int) (var16 Int) (var17 AddrRange) (var18 Int) (var19 Int) (var20 Int) (var21 AddrRange) (var22 AddrRange) (var23 Heap)) (or (not (and (and (and (and (and (and (and (and (and (and (and (and (and (and (and (and (and (and (and (inv_main26 var23 var22 var21 var20 var19 var18 var17 var16) (or (and (= var7 9) (= var15 1)) (and (not (= var7 9)) (= var15 0)))) (= var0 var8)) (= var1 var9)) (= var2 var10)) (= var3 var11)) (= var4 var12)) (= var5 var13)) (= var6 var14)) (= var7 (getInt (readHeap var23 (nthAddrRange var21 var20))))) (= var8 var17)) (= var9 var18)) (= var10 var19)) (= var11 var20)) (= var12 var21)) (= var13 var22)) (= var14 var23)) (is-O_Int (readHeap var23 (nthAddrRange var21 var20)))) (not (= var16 32))) (not (= var15 0)))) (inv_main23 var6 var5 var4 (+ var3 1) var2 var1 var0))))
(assert (forall ((var0 Int) (var1 AddrRange) (var2 Heap)) (not (and (inv_main9 var2 var1 var0) (not (is-O_Int (readHeap var2 (nthAddrRange var1 var0))))))))
(assert (forall ((var0 Int) (var1 AddrRange) (var2 Heap)) (not (and (and (inv_main9 var2 var1 var0) (not (withinHeap var1 (nthAddrRange var1 var0)))) (is-O_Int (readHeap var2 (nthAddrRange var1 var0)))))))
(assert (forall ((var0 Int) (var1 AddrRange) (var2 Heap)) (not (and (and (inv_main9 var2 var1 var0) (not (is-O_Int (readHeap var2 (nthAddrRange var1 var0))))) (is-O_Int (readHeap var2 (nthAddrRange var1 var0)))))))
(assert (forall ((var0 AddrRange) (var1 Heap)) (not (and (inv_main4 var1 var0) (not (is-O_Int (readHeap var1 (nthAddrRange var0 8))))))))
(assert (forall ((var0 AddrRange) (var1 Heap)) (not (and (and (inv_main4 var1 var0) (not (withinHeap var0 (nthAddrRange var0 8)))) (is-O_Int (readHeap var1 (nthAddrRange var0 8)))))))
(assert (forall ((var0 AddrRange) (var1 Heap)) (not (and (and (inv_main4 var1 var0) (not (is-O_Int (readHeap var1 (nthAddrRange var0 8))))) (is-O_Int (readHeap var1 (nthAddrRange var0 8)))))))
(assert (forall ((var0 AddrRange) (var1 Int) (var2 Int) (var3 Int) (var4 AddrRange) (var5 AddrRange) (var6 Heap)) (not (and (inv_main22 var6 var5 var4 var3 var2 var1 var0) (not (is-O_Int (readHeap var6 (nthAddrRange var4 var2))))))))
(assert (forall ((var0 AddrRange) (var1 Int) (var2 Int) (var3 Int) (var4 AddrRange) (var5 AddrRange) (var6 Heap)) (not (and (and (inv_main22 var6 var5 var4 var3 var2 var1 var0) (not (withinHeap var4 (nthAddrRange var4 var2)))) (is-O_Int (readHeap var6 (nthAddrRange var4 var2)))))))
(assert (forall ((var0 AddrRange) (var1 Int) (var2 Int) (var3 Int) (var4 AddrRange) (var5 AddrRange) (var6 Heap)) (not (and (inv_main23 var6 var5 var4 var3 var2 var1 var0) (not (is-O_Int (readHeap var6 (nthAddrRange var4 var3))))))))
(assert (forall ((var0 AddrRange) (var1 Int) (var2 Int) (var3 Int) (var4 AddrRange) (var5 AddrRange) (var6 Heap)) (not (and (and (inv_main23 var6 var5 var4 var3 var2 var1 var0) (not (withinHeap var4 (nthAddrRange var4 var3)))) (is-O_Int (readHeap var6 (nthAddrRange var4 var3)))))))
(assert (forall ((var0 Int) (var1 AddrRange) (var2 Int) (var3 Int) (var4 Int) (var5 AddrRange) (var6 AddrRange) (var7 Heap)) (not (and (and (inv_main26 var7 var6 var5 var4 var3 var2 var1 var0) (not (is-O_Int (readHeap var7 (nthAddrRange var5 var4))))) (not (= var0 32))))))
(assert (forall ((var0 Int) (var1 AddrRange) (var2 Int) (var3 Int) (var4 Int) (var5 AddrRange) (var6 AddrRange) (var7 Heap)) (not (and (and (and (inv_main26 var7 var6 var5 var4 var3 var2 var1 var0) (not (withinHeap var5 (nthAddrRange var5 var4)))) (is-O_Int (readHeap var7 (nthAddrRange var5 var4)))) (not (= var0 32))))))
(assert (forall ((var0 AddrRange) (var1 Int) (var2 Int) (var3 Int) (var4 AddrRange) (var5 AddrRange) (var6 Heap)) (not (and (inv_main24 var6 var5 var4 var3 var2 var1 var0) (not (is-O_Int (readHeap var6 (nthAddrRange var4 var3))))))))
(assert (forall ((var0 AddrRange) (var1 Int) (var2 Int) (var3 Int) (var4 AddrRange) (var5 AddrRange) (var6 Heap)) (not (and (and (inv_main24 var6 var5 var4 var3 var2 var1 var0) (not (withinHeap var4 (nthAddrRange var4 var3)))) (is-O_Int (readHeap var6 (nthAddrRange var4 var3)))))))
(assert (forall ((var0 AddrRange) (var1 Int) (var2 Int) (var3 Int) (var4 AddrRange) (var5 AddrRange) (var6 Heap)) (not (and (and (inv_main33 var6 var5 var4 var3 var2 var1 var0) (not (is-O_Int (readHeap var6 (nthAddrRange var4 var1))))) (<= 0 (+ var1 (* (- 1) 1)))))))
(assert (forall ((var0 AddrRange) (var1 Int) (var2 Int) (var3 Int) (var4 AddrRange) (var5 AddrRange) (var6 Heap)) (not (and (and (and (inv_main33 var6 var5 var4 var3 var2 var1 var0) (not (withinHeap var4 (nthAddrRange var4 var1)))) (is-O_Int (readHeap var6 (nthAddrRange var4 var1)))) (<= 0 (+ var1 (* (- 1) 1)))))))
(assert (forall ((var0 Int) (var1 AddrRange) (var2 Int) (var3 Int) (var4 Int) (var5 AddrRange) (var6 AddrRange) (var7 Heap)) (not (and (and (inv_main36 var7 var6 var5 var4 var3 var2 var1 var0) (not (is-O_Int (readHeap var7 (nthAddrRange var5 var2))))) (not (= var0 32))))))
(assert (forall ((var0 Int) (var1 AddrRange) (var2 Int) (var3 Int) (var4 Int) (var5 AddrRange) (var6 AddrRange) (var7 Heap)) (not (and (and (and (inv_main36 var7 var6 var5 var4 var3 var2 var1 var0) (not (withinHeap var5 (nthAddrRange var5 var2)))) (is-O_Int (readHeap var7 (nthAddrRange var5 var2)))) (not (= var0 32))))))
(assert (forall ((var0 AddrRange) (var1 Int) (var2 Int) (var3 Int) (var4 AddrRange) (var5 AddrRange) (var6 Heap)) (not (and (and (inv_main34 var6 var5 var4 var3 var2 var1 var0) (not (is-O_Int (readHeap var6 (nthAddrRange var4 var1))))) (<= 0 (+ var1 (* (- 1) 1)))))))
(assert (forall ((var0 AddrRange) (var1 Int) (var2 Int) (var3 Int) (var4 AddrRange) (var5 AddrRange) (var6 Heap)) (not (and (and (and (inv_main34 var6 var5 var4 var3 var2 var1 var0) (not (withinHeap var4 (nthAddrRange var4 var1)))) (is-O_Int (readHeap var6 (nthAddrRange var4 var1)))) (<= 0 (+ var1 (* (- 1) 1)))))))
(assert (forall ((var0 AddrRange) (var1 Int) (var2 Int) (var3 Int) (var4 AddrRange) (var5 AddrRange) (var6 Heap)) (not (and (inv_main51 var6 var5 var4 var3 var2 var1 var0) (not (<= 0 (+ (+ (* (- 1) (+ (+ (* (- 1) var3) var1) 1)) 2) (* (- 1) 1))))))))
(assert (forall ((var0 AddrRange) (var1 Int) (var2 Int) (var3 Int) (var4 AddrRange) (var5 AddrRange) (var6 Heap)) (not (and (inv_main56 var6 var5 var4 var3 var2 var1 var0) (not (is-O_Int (readHeap var6 (nthAddrRange var0 (+ (+ (* (- 1) var3) var1) 1)))))))))
(assert (forall ((var0 AddrRange) (var1 Int) (var2 Int) (var3 Int) (var4 AddrRange) (var5 AddrRange) (var6 Heap)) (not (and (and (inv_main56 var6 var5 var4 var3 var2 var1 var0) (not (withinHeap var0 (nthAddrRange var0 (+ (+ (* (- 1) var3) var1) 1))))) (is-O_Int (readHeap var6 (nthAddrRange var0 (+ (+ (* (- 1) var3) var1) 1))))))))
(assert (forall ((var0 AddrRange) (var1 Int) (var2 Int) (var3 Int) (var4 AddrRange) (var5 AddrRange) (var6 Heap)) (not (and (and (inv_main56 var6 var5 var4 var3 var2 var1 var0) (not (is-O_Int (readHeap var6 (nthAddrRange var0 (+ (+ (* (- 1) var3) var1) 1)))))) (is-O_Int (readHeap var6 (nthAddrRange var0 (+ (+ (* (- 1) var3) var1) 1))))))))
(assert (forall ((var0 AddrRange) (var1 Int) (var2 Int) (var3 Int) (var4 AddrRange) (var5 AddrRange) (var6 Heap)) (not (and (and (inv_main22 var6 var5 var4 var3 var2 var1 var0) (not (= (getInt (readHeap var6 (nthAddrRange var4 var2))) 0))) (is-O_Int (readHeap var6 (nthAddrRange var4 var2)))))))
(assert (forall ((var0 AddrRange) (var1 Int) (var2 Int) (var3 Int) (var4 AddrRange) (var5 AddrRange) (var6 Heap)) (not (and (inv_main21 var6 var5 var4 var3 var2 var1 var0) (not (is-O_Int (readHeap var6 (nthAddrRange var4 var2))))))))
(assert (forall ((var0 AddrRange) (var1 Int) (var2 Int) (var3 Int) (var4 AddrRange) (var5 AddrRange) (var6 Heap)) (not (and (and (inv_main21 var6 var5 var4 var3 var2 var1 var0) (not (withinHeap var4 (nthAddrRange var4 var2)))) (is-O_Int (readHeap var6 (nthAddrRange var4 var2)))))))
(check-sat)
